NPROCS=0
This instance is clustered!
Gurobi Optimizer version 9.0.0 build v9.0.0rc2 (linux64)
Optimize a model with 30 rows, 226 columns and 450 nonzeros
Model fingerprint: 0xbfdfd60c
Variable types: 1 continuous, 225 integer (225 binary)
Coefficient statistics:
  Matrix range     [1e+00, 1e+00]
  Objective range  [1e+00, 2e+02]
  Bounds range     [1e+00, 1e+00]
  RHS range        [1e+00, 1e+00]
 done with super cut 0
Presolve removed 2 rows and 42 columns
Presolve time: 0.00s
Presolved: 28 rows, 184 columns, 366 nonzeros
Variable types: 1 continuous, 183 integer (183 binary)

Root relaxation: objective 3.127231e+02, 21 iterations, 0.00 seconds
 done with super cut 1

    Nodes    |    Current Node    |     Objective Bounds      |     Work
 Expl Unexpl |  Obj  Depth IntInf | Incumbent    BestBd   Gap | It/Node Time

     0     0  397.89994    0   23          -  397.89994      -     -    0s
 done with super cut 2
 done with super cut 3
H    0     0                     520.2538831  397.89994  23.5%     -    0s
 done with super cut 4
     0     0  400.70385    0   27  520.25388  400.70385  23.0%     -    0s
 done with super cut 5
 done with super cut 6
     0     0  400.70385    0   27  520.25388  400.70385  23.0%     -    1s
 done with super cut 7
 done with super cut 8
     0     2  400.70385    0   27  520.25388  400.70385  23.0%     -    1s
 done with super cut 9
 done with super cut 10
* 4607  1037              16     493.5721255  467.63804  5.25%   5.3    3s

Cutting planes:
  Gomory: 1
  Lazy constraints: 344

Explored 6915 nodes (43201 simplex iterations) in 3.16 seconds
Thread count was 12 (of 12 available processors)

Solution count 2: 493.572 520.254 

Optimal solution found (tolerance 1.00e-04)
Best objective 4.935721254800e+02, best bound 4.935721254800e+02, gap 0.0000%

User-callback calls 14404, time in user-callback 2.66 sec
/projects/academic/josewalt/caigao/RRARP_BD/BendersDecomp/ret/model_outs/n_13_m_4_algo_4.out
 =====>>>>> Solution is written to file in <../ret/model_outs> !!!
===>> All Done!
